c SAT Generator for power-law distributed variable frequencies
c -g u -v 20 -c 91 -k 3 -p 2.750000 -b 3.200000 -f /home/schmidt/Devel/ni-kop-sat/data/ensemble/ruf20-91/ruf20-91-546 -u 1 -U 1 -s 3169007169
p cnf 20 91
-2 -18 -20 0
-7 -9 17 0
-10 12 18 0
-3 7 -19 0
-1 9 11 0
-7 -11 14 0
2 -3 -19 0
1 -3 14 0
1 12 -13 0
7 -9 20 0
6 -8 -13 0
-3 -4 17 0
7 14 -15 0
-2 6 13 0
4 5 -7 0
4 9 19 0
-8 -11 17 0
-7 11 -17 0
1 10 -15 0
-2 8 -20 0
-11 -19 -20 0
7 8 -11 0
-2 3 16 0
-5 7 17 0
-7 8 19 0
5 -13 -20 0
6 7 -16 0
-2 -14 -20 0
-7 10 -19 0
-5 12 -15 0
10 15 -16 0
2 11 -16 0
8 12 -14 0
-1 -5 8 0
1 3 14 0
-2 -16 18 0
5 -11 -19 0
8 10 -14 0
5 10 20 0
7 9 15 0
7 -9 16 0
-5 -10 12 0
2 7 -19 0
8 10 17 0
4 15 -20 0
-1 4 -9 0
-16 -18 19 0
1 2 -5 0
-7 -8 -19 0
14 17 -19 0
10 -11 19 0
-11 18 -20 0
-2 12 -20 0
1 -3 8 0
-9 -13 -19 0
8 11 -16 0
6 -9 -20 0
7 -14 17 0
9 -13 -18 0
-1 8 10 0
-5 18 -20 0
-10 -12 -13 0
-1 -3 13 0
-6 9 -13 0
4 -13 -17 0
-5 8 -19 0
-7 13 -16 0
1 6 9 0
2 7 -15 0
2 8 -14 0
-5 -9 -11 0
-9 -12 -14 0
6 7 -18 0
-11 -12 15 0
-1 15 -19 0
3 10 -13 0
-1 15 16 0
-2 -7 9 0
-6 -9 19 0
-2 -3 10 0
1 -14 -17 0
-4 -8 14 0
-4 -6 -8 0
2 7 -12 0
2 -9 -20 0
-7 -8 -9 0
-2 16 -20 0
10 12 15 0
-11 -16 20 0
-8 -11 -12 0
-6 -11 16 0
